(set-logic QF_NRA)
(set-info :source |Benchmarks generated from hycomp (https://es-static.fbk.eu/tools/hycomp/). BMC instances of non-linear hybrid automata taken from: Alessandro Cimatti, Sergio Mover, Stefano Tonetta, A quantifier-free SMT encoding of non-linear hybrid automata, FMCAD 2012 and Alessandro Cimatti, Sergio Mover, Stefano Tonetta, Quantier-free encoding of invariants for Hybrid Systems, Formal Methods in System Design. This instance solves a BMC problem of depth 3 and uses the encoding obtained with quantifier elimination using redlog encoding. Contacts: Sergio Mover (mover@fbk.eu), Stefano Tonetta (tonettas@fbk.eu), Alessandro Cimatti (cimatti@fbk.eu).|)
(set-info :smt-lib-version 2.0)
(set-info :category "industrial")
(set-info :status unsat)
;; MathSAT API call trace
;; generated on Mon Mar 19 10:44:59 2012
(declare-fun b.delta__AT2 () Real)
(declare-fun b.event_is_timed__AT1 () Bool)
(declare-fun b.counter.0__AT1 () Bool)
(declare-fun b.event_is_timed__AT3 () Bool)
(declare-fun b.speed_x__AT0 () Real)
(declare-fun b.x__AT2 () Real)
(declare-fun b.EVENT.0__AT2 () Bool)
(declare-fun b.counter.1__AT1 () Bool)
(declare-fun b.time__AT0 () Real)
(declare-fun b.speed_x__AT3 () Real)
(declare-fun b.EVENT.1__AT2 () Bool)
(declare-fun b.counter.2__AT0 () Bool)
(declare-fun b.counter.2__AT1 () Bool)
(declare-fun b.speed_y__AT3 () Real)
(declare-fun b.counter.3__AT1 () Bool)
(declare-fun b.x__AT0 () Real)
(declare-fun b.time__AT3 () Real)
(declare-fun b.speed_x__AT1 () Real)
(declare-fun b.delta__AT3 () Real)
(declare-fun b.time__AT1 () Real)
(declare-fun g__AT0 () Real)
(declare-fun b.y__AT0 () Real)
(declare-fun b.EVENT.0__AT1 () Bool)
(declare-fun b.speed_y__AT1 () Real)
(declare-fun b.EVENT.0__AT3 () Bool)
(declare-fun b.delta__AT1 () Real)
(declare-fun b.counter.0__AT0 () Bool)
(declare-fun b.EVENT.1__AT1 () Bool)
(declare-fun b.y__AT2 () Real)
(declare-fun b.y__AT4 () Real)
(declare-fun b.EVENT.1__AT3 () Bool)
(declare-fun b.delta__AT0 () Real)
(declare-fun b.counter.1__AT0 () Bool)
(declare-fun b.counter.0__AT2 () Bool)
(declare-fun b.EVENT.0__AT0 () Bool)
(declare-fun b.counter.1__AT2 () Bool)
(declare-fun b.counter.3__AT3 () Bool)
(declare-fun b.event_is_timed__AT0 () Bool)
(declare-fun b.counter.2__AT2 () Bool)
(declare-fun b.x__AT1 () Real)
(declare-fun b.x__AT3 () Real)
(declare-fun b.speed_y__AT0 () Real)
(declare-fun b.speed_x__AT2 () Real)
(declare-fun b.speed_y__AT2 () Real)
(declare-fun b.EVENT.1__AT0 () Bool)
(declare-fun b.event_is_timed__AT2 () Bool)
(declare-fun b.counter.3__AT0 () Bool)
(declare-fun b.y__AT3 () Real)
(declare-fun b.counter.0__AT3 () Bool)
(declare-fun b.counter.1__AT3 () Bool)
(declare-fun b.counter.3__AT2 () Bool)
(declare-fun speed_loss__AT0 () Real)
(declare-fun b.time__AT2 () Real)
(declare-fun b.counter.2__AT3 () Bool)
(declare-fun b.y__AT1 () Real)
(assert (let ((.def_925 (= b.y__AT3 b.y__AT4)))
(let ((.def_926 (not .def_925)))
(let ((.def_839 (* g__AT0 b.delta__AT3)))
(let ((.def_913 (<= b.speed_y__AT3 .def_839)))
(let ((.def_914 (not .def_913)))
(let ((.def_842 (* 2.0 b.speed_y__AT3)))
(let ((.def_843 (* b.delta__AT3 .def_842)))
(let ((.def_840 (* b.delta__AT3 .def_839)))
(let ((.def_841 (* (- 1.0) .def_840)))
(let ((.def_844 (+ .def_841 .def_843)))
(let ((.def_845 (* 2.0 b.y__AT3)))
(let ((.def_847 (+ .def_845 .def_844)))
(let ((.def_905 (= .def_847 0.0 )))
(let ((.def_906 (not .def_905)))
(let ((.def_915 (or .def_906 .def_914)))
(let ((.def_113 (* 2.0 g__AT0)))
(let ((.def_892 (* .def_113 b.speed_y__AT3)))
(let ((.def_893 (* b.delta__AT3 .def_892)))
(let ((.def_133 (* g__AT0 g__AT0)))
(let ((.def_889 (* .def_133 b.delta__AT3)))
(let ((.def_890 (* b.delta__AT3 .def_889)))
(let ((.def_891 (* (- 1.0) .def_890)))
(let ((.def_894 (+ .def_891 .def_893)))
(let ((.def_874 (* .def_113 b.y__AT3)))
(let ((.def_895 (+ .def_874 .def_894)))
(let ((.def_900 (<= 0.0 .def_895)))
(let ((.def_852 (* g__AT0 b.speed_y__AT3)))
(let ((.def_897 (<= .def_889 .def_852)))
(let ((.def_901 (or .def_897 .def_900)))
(let ((.def_916 (and .def_901 .def_915)))
(let ((.def_854 (* b.speed_y__AT3 b.speed_y__AT3)))
(let ((.def_875 (+ .def_854 .def_874)))
(let ((.def_910 (<= .def_875 0.0 )))
(let ((.def_911 (not .def_910)))
(let ((.def_129 (<= 0.0 g__AT0)))
(let ((.def_130 (not .def_129)))
(let ((.def_912 (or .def_130 .def_911)))
(let ((.def_917 (or .def_912 .def_916)))
(let ((.def_879 (* g__AT0 b.y__AT3)))
(let ((.def_883 (<= .def_879 0.0 )))
(let ((.def_882 (<= .def_852 0.0 )))
(let ((.def_884 (and .def_882 .def_883)))
(let ((.def_918 (or .def_884 .def_917)))
(let ((.def_903 (<= .def_839 b.speed_y__AT3)))
(let ((.def_904 (not .def_903)))
(let ((.def_907 (or .def_904 .def_906)))
(let ((.def_896 (<= .def_895 0.0 )))
(let ((.def_898 (and .def_896 .def_897)))
(let ((.def_899 (or .def_130 .def_898)))
(let ((.def_902 (and .def_899 .def_901)))
(let ((.def_908 (and .def_902 .def_907)))
(let ((.def_886 (= .def_875 0.0 )))
(let ((.def_887 (and .def_130 .def_886)))
(let ((.def_880 (<= 0.0 .def_879)))
(let ((.def_121 (<= g__AT0 0.0 )))
(let ((.def_122 (not .def_121)))
(let ((.def_881 (and .def_122 .def_880)))
(let ((.def_885 (or .def_881 .def_884)))
(let ((.def_888 (or .def_885 .def_887)))
(let ((.def_909 (or .def_888 .def_908)))
(let ((.def_919 (and .def_909 .def_918)))
(let ((.def_876 (<= 0.0 .def_875)))
(let ((.def_877 (not .def_876)))
(let ((.def_96 (= g__AT0 0.0 )))
(let ((.def_878 (or .def_96 .def_877)))
(let ((.def_920 (or .def_878 .def_919)))
(let ((.def_867 (* b.speed_y__AT3 b.delta__AT3)))
(let ((.def_868 (+ b.y__AT3 .def_867)))
(let ((.def_869 (= .def_868 0.0 )))
(let ((.def_870 (not .def_869)))
(let ((.def_864 (* b.delta__AT3 .def_854)))
(let ((.def_859 (* b.y__AT3 b.speed_y__AT3)))
(let ((.def_865 (+ .def_859 .def_864)))
(let ((.def_866 (<= .def_865 0.0 )))
(let ((.def_871 (and .def_866 .def_870)))
(let ((.def_862 (= b.speed_y__AT3 0.0 )))
(let ((.def_860 (<= 0.0 .def_859)))
(let ((.def_855 (* b.speed_y__AT3 .def_854)))
(let ((.def_853 (* b.y__AT3 .def_852)))
(let ((.def_856 (+ .def_853 .def_855)))
(let ((.def_857 (<= .def_856 0.0 )))
(let ((.def_97 (not .def_96)))
(let ((.def_858 (or .def_97 .def_857)))
(let ((.def_861 (or .def_858 .def_860)))
(let ((.def_863 (or .def_861 .def_862)))
(let ((.def_872 (or .def_863 .def_871)))
(let ((.def_849 (<= 0.0 b.delta__AT3)))
(let ((.def_850 (not .def_849)))
(let ((.def_848 (<= 0.0 .def_847)))
(let ((.def_851 (or .def_848 .def_850)))
(let ((.def_873 (and .def_851 .def_872)))
(let ((.def_921 (and .def_873 .def_920)))
(let ((.def_822 (not b.EVENT.0__AT3)))
(let ((.def_820 (not b.EVENT.1__AT3)))
(let ((.def_836 (and .def_820 .def_822)))
(let ((.def_922 (and .def_836 .def_921)))
(let ((.def_923 (not .def_922)))
(let ((.def_927 (or .def_923 .def_926)))
(let ((.def_837 (not .def_836)))
(let ((.def_928 (or .def_837 .def_927)))
(let ((.def_482 (not b.counter.0__AT2)))
(let ((.def_470 (not b.counter.1__AT2)))
(let ((.def_829 (and .def_470 .def_482)))
(let ((.def_832 (or b.counter.3__AT2 .def_829)))
(let ((.def_477 (not b.counter.2__AT2)))
(let ((.def_830 (and .def_477 .def_829)))
(let ((.def_492 (not b.counter.3__AT2)))
(let ((.def_831 (or .def_492 .def_830)))
(let ((.def_833 (and .def_831 .def_832)))
(let ((.def_825 (<= 0.0 b.y__AT3)))
(let ((.def_65 (<= speed_loss__AT0 (/ 1 2))))
(let ((.def_62 (<= (/ 1 10) speed_loss__AT0)))
(let ((.def_66 (and .def_62 .def_65)))
(let ((.def_57 (<= g__AT0 10.0 )))
(let ((.def_56 (<= 8.0 g__AT0)))
(let ((.def_58 (and .def_56 .def_57)))
(let ((.def_67 (and .def_58 .def_66)))
(let ((.def_826 (and .def_67 .def_825)))
(let ((.def_823 (or .def_820 .def_822)))
(let ((.def_6 (not b.counter.0__AT3)))
(let ((.def_4 (not b.counter.1__AT3)))
(let ((.def_813 (or .def_4 .def_6)))
(let ((.def_817 (or b.counter.3__AT3 .def_813)))
(let ((.def_814 (or b.counter.2__AT3 .def_813)))
(let ((.def_9 (not b.counter.2__AT3)))
(let ((.def_812 (or .def_6 .def_9)))
(let ((.def_815 (and .def_812 .def_814)))
(let ((.def_12 (not b.counter.3__AT3)))
(let ((.def_816 (or .def_12 .def_815)))
(let ((.def_818 (and .def_816 .def_817)))
(let ((.def_824 (and .def_818 .def_823)))
(let ((.def_827 (and .def_824 .def_826)))
(let ((.def_605 (<= 0.0 b.delta__AT2)))
(let ((.def_578 (not b.EVENT.0__AT2)))
(let ((.def_576 (not b.EVENT.1__AT2)))
(let ((.def_592 (and .def_576 .def_578)))
(let ((.def_593 (not .def_592)))
(let ((.def_808 (or .def_593 .def_605)))
(let ((.def_809 (or b.EVENT.1__AT2 .def_808)))
(let ((.def_758 (= b.counter.0__AT3 b.counter.0__AT2)))
(let ((.def_756 (= b.counter.1__AT3 b.counter.1__AT2)))
(let ((.def_754 (= b.counter.2__AT3 b.counter.2__AT2)))
(let ((.def_753 (= b.counter.3__AT3 b.counter.3__AT2)))
(let ((.def_755 (and .def_753 .def_754)))
(let ((.def_757 (and .def_755 .def_756)))
(let ((.def_759 (and .def_757 .def_758)))
(let ((.def_805 (or .def_593 .def_759)))
(let ((.def_806 (or b.EVENT.1__AT2 .def_805)))
(let ((.def_765 (= b.x__AT2 b.x__AT3)))
(let ((.def_681 (= b.y__AT2 b.y__AT3)))
(let ((.def_799 (and .def_681 .def_765)))
(let ((.def_693 (= b.speed_x__AT2 b.speed_x__AT3)))
(let ((.def_800 (and .def_693 .def_799)))
(let ((.def_752 (= b.speed_y__AT2 b.speed_y__AT3)))
(let ((.def_801 (and .def_752 .def_800)))
(let ((.def_796 (= b.delta__AT2 0.0 )))
(let ((.def_797 (and .def_592 .def_796)))
(let ((.def_798 (not .def_797)))
(let ((.def_802 (or .def_798 .def_801)))
(let ((.def_803 (or b.EVENT.1__AT2 .def_802)))
(let ((.def_776 (= b.time__AT2 b.time__AT3)))
(let ((.def_788 (and .def_765 .def_776)))
(let ((.def_789 (and .def_681 .def_788)))
(let ((.def_790 (and .def_693 .def_789)))
(let ((.def_791 (and .def_752 .def_790)))
(let ((.def_792 (and .def_759 .def_791)))
(let ((.def_793 (or .def_576 .def_792)))
(let ((.def_779 (* (- 1.0) b.time__AT3)))
(let ((.def_782 (+ b.delta__AT2 .def_779)))
(let ((.def_783 (+ b.time__AT2 .def_782)))
(let ((.def_784 (= .def_783 0.0 )))
(let ((.def_785 (or .def_593 .def_784)))
(let ((.def_786 (or b.EVENT.1__AT2 .def_785)))
(let ((.def_777 (or .def_592 .def_776)))
(let ((.def_778 (or b.EVENT.1__AT2 .def_777)))
(let ((.def_787 (and .def_778 .def_786)))
(let ((.def_794 (and .def_787 .def_793)))
(let ((.def_772 (= .def_593 b.event_is_timed__AT3)))
(let ((.def_770 (= b.event_is_timed__AT2 .def_592)))
(let ((.def_773 (and .def_770 .def_772)))
(let ((.def_760 (and .def_752 .def_759)))
(let ((.def_715 (<= 0.0 b.speed_y__AT2)))
(let ((.def_716 (not .def_715)))
(let ((.def_714 (= b.y__AT2 0.0 )))
(let ((.def_717 (and .def_714 .def_716)))
(let ((.def_761 (or .def_717 .def_760)))
(let ((.def_729 (or .def_6 b.counter.0__AT2)))
(let ((.def_728 (or b.counter.0__AT3 .def_482)))
(let ((.def_730 (and .def_728 .def_729)))
(let ((.def_731 (and .def_4 .def_730)))
(let ((.def_732 (or b.counter.1__AT2 .def_731)))
(let ((.def_727 (or b.counter.1__AT3 .def_470)))
(let ((.def_733 (and .def_727 .def_732)))
(let ((.def_744 (and .def_9 .def_733)))
(let ((.def_745 (or b.counter.2__AT2 .def_744)))
(let ((.def_739 (and .def_4 .def_482)))
(let ((.def_740 (or b.counter.1__AT2 .def_739)))
(let ((.def_741 (and .def_727 .def_740)))
(let ((.def_742 (and b.counter.2__AT3 .def_741)))
(let ((.def_743 (or .def_477 .def_742)))
(let ((.def_746 (and .def_743 .def_745)))
(let ((.def_747 (and b.counter.3__AT3 .def_746)))
(let ((.def_748 (or b.counter.3__AT2 .def_747)))
(let ((.def_734 (and b.counter.2__AT3 .def_733)))
(let ((.def_735 (or b.counter.2__AT2 .def_734)))
(let ((.def_723 (or b.counter.1__AT3 b.counter.1__AT2)))
(let ((.def_721 (and .def_4 b.counter.0__AT3)))
(let ((.def_722 (or .def_470 .def_721)))
(let ((.def_724 (and .def_722 .def_723)))
(let ((.def_725 (and .def_9 .def_724)))
(let ((.def_726 (or .def_477 .def_725)))
(let ((.def_736 (and .def_726 .def_735)))
(let ((.def_737 (and .def_12 .def_736)))
(let ((.def_738 (or .def_492 .def_737)))
(let ((.def_749 (and .def_738 .def_748)))
(let ((.def_445 (* (- 1.0) b.speed_y__AT2)))
(let ((.def_214 (* (- 1.0) speed_loss__AT0)))
(let ((.def_215 (+ 1.0 .def_214)))
(let ((.def_719 (* .def_215 .def_445)))
(let ((.def_720 (= b.speed_y__AT3 .def_719)))
(let ((.def_750 (and .def_720 .def_749)))
(let ((.def_718 (not .def_717)))
(let ((.def_751 (or .def_718 .def_750)))
(let ((.def_762 (and .def_751 .def_761)))
(let ((.def_763 (and .def_681 .def_762)))
(let ((.def_764 (and .def_693 .def_763)))
(let ((.def_766 (and .def_764 .def_765)))
(let ((.def_767 (or .def_592 .def_766)))
(let ((.def_768 (or b.EVENT.1__AT2 .def_767)))
(let ((.def_702 (* b.delta__AT2 b.delta__AT2)))
(let ((.def_188 (* (- 1.0) g__AT0)))
(let ((.def_196 (* (/ 1 2) .def_188)))
(let ((.def_703 (* .def_196 .def_702)))
(let ((.def_705 (* (- 1.0) b.y__AT3)))
(let ((.def_708 (+ .def_705 .def_703)))
(let ((.def_623 (* b.speed_y__AT2 b.delta__AT2)))
(let ((.def_709 (+ .def_623 .def_708)))
(let ((.def_710 (+ b.y__AT2 .def_709)))
(let ((.def_711 (= .def_710 0.0 )))
(let ((.def_697 (* (- 1.0) b.speed_y__AT3)))
(let ((.def_695 (* .def_188 b.delta__AT2)))
(let ((.def_698 (+ .def_695 .def_697)))
(let ((.def_699 (+ b.speed_y__AT2 .def_698)))
(let ((.def_700 (= .def_699 0.0 )))
(let ((.def_688 (* (- 1.0) b.x__AT3)))
(let ((.def_686 (* b.speed_x__AT2 b.delta__AT2)))
(let ((.def_689 (+ .def_686 .def_688)))
(let ((.def_690 (+ b.x__AT2 .def_689)))
(let ((.def_691 (= .def_690 0.0 )))
(let ((.def_694 (and .def_691 .def_693)))
(let ((.def_701 (and .def_694 .def_700)))
(let ((.def_712 (and .def_701 .def_711)))
(let ((.def_713 (or .def_593 .def_712)))
(let ((.def_769 (and .def_713 .def_768)))
(let ((.def_774 (and .def_769 .def_773)))
(let ((.def_795 (and .def_774 .def_794)))
(let ((.def_804 (and .def_795 .def_803)))
(let ((.def_807 (and .def_804 .def_806)))
(let ((.def_810 (and .def_807 .def_809)))
(let ((.def_811 (and .def_576 .def_810)))
(let ((.def_828 (and .def_811 .def_827)))
(let ((.def_834 (and .def_828 .def_833)))
(let ((.def_682 (not .def_681)))
(let ((.def_595 (* g__AT0 b.delta__AT2)))
(let ((.def_669 (<= b.speed_y__AT2 .def_595)))
(let ((.def_670 (not .def_669)))
(let ((.def_598 (* 2.0 b.speed_y__AT2)))
(let ((.def_599 (* b.delta__AT2 .def_598)))
(let ((.def_596 (* b.delta__AT2 .def_595)))
(let ((.def_597 (* (- 1.0) .def_596)))
(let ((.def_600 (+ .def_597 .def_599)))
(let ((.def_601 (* 2.0 b.y__AT2)))
(let ((.def_603 (+ .def_601 .def_600)))
(let ((.def_661 (= .def_603 0.0 )))
(let ((.def_662 (not .def_661)))
(let ((.def_671 (or .def_662 .def_670)))
(let ((.def_648 (* .def_113 b.speed_y__AT2)))
(let ((.def_649 (* b.delta__AT2 .def_648)))
(let ((.def_645 (* .def_133 b.delta__AT2)))
(let ((.def_646 (* b.delta__AT2 .def_645)))
(let ((.def_647 (* (- 1.0) .def_646)))
(let ((.def_650 (+ .def_647 .def_649)))
(let ((.def_630 (* .def_113 b.y__AT2)))
(let ((.def_651 (+ .def_630 .def_650)))
(let ((.def_656 (<= 0.0 .def_651)))
(let ((.def_608 (* g__AT0 b.speed_y__AT2)))
(let ((.def_653 (<= .def_645 .def_608)))
(let ((.def_657 (or .def_653 .def_656)))
(let ((.def_672 (and .def_657 .def_671)))
(let ((.def_610 (* b.speed_y__AT2 b.speed_y__AT2)))
(let ((.def_631 (+ .def_610 .def_630)))
(let ((.def_666 (<= .def_631 0.0 )))
(let ((.def_667 (not .def_666)))
(let ((.def_668 (or .def_130 .def_667)))
(let ((.def_673 (or .def_668 .def_672)))
(let ((.def_635 (* g__AT0 b.y__AT2)))
(let ((.def_639 (<= .def_635 0.0 )))
(let ((.def_638 (<= .def_608 0.0 )))
(let ((.def_640 (and .def_638 .def_639)))
(let ((.def_674 (or .def_640 .def_673)))
(let ((.def_659 (<= .def_595 b.speed_y__AT2)))
(let ((.def_660 (not .def_659)))
(let ((.def_663 (or .def_660 .def_662)))
(let ((.def_652 (<= .def_651 0.0 )))
(let ((.def_654 (and .def_652 .def_653)))
(let ((.def_655 (or .def_130 .def_654)))
(let ((.def_658 (and .def_655 .def_657)))
(let ((.def_664 (and .def_658 .def_663)))
(let ((.def_642 (= .def_631 0.0 )))
(let ((.def_643 (and .def_130 .def_642)))
(let ((.def_636 (<= 0.0 .def_635)))
(let ((.def_637 (and .def_122 .def_636)))
(let ((.def_641 (or .def_637 .def_640)))
(let ((.def_644 (or .def_641 .def_643)))
(let ((.def_665 (or .def_644 .def_664)))
(let ((.def_675 (and .def_665 .def_674)))
(let ((.def_632 (<= 0.0 .def_631)))
(let ((.def_633 (not .def_632)))
(let ((.def_634 (or .def_96 .def_633)))
(let ((.def_676 (or .def_634 .def_675)))
(let ((.def_624 (+ b.y__AT2 .def_623)))
(let ((.def_625 (= .def_624 0.0 )))
(let ((.def_626 (not .def_625)))
(let ((.def_620 (* b.delta__AT2 .def_610)))
(let ((.def_615 (* b.y__AT2 b.speed_y__AT2)))
(let ((.def_621 (+ .def_615 .def_620)))
(let ((.def_622 (<= .def_621 0.0 )))
(let ((.def_627 (and .def_622 .def_626)))
(let ((.def_618 (= b.speed_y__AT2 0.0 )))
(let ((.def_616 (<= 0.0 .def_615)))
(let ((.def_611 (* b.speed_y__AT2 .def_610)))
(let ((.def_609 (* b.y__AT2 .def_608)))
(let ((.def_612 (+ .def_609 .def_611)))
(let ((.def_613 (<= .def_612 0.0 )))
(let ((.def_614 (or .def_97 .def_613)))
(let ((.def_617 (or .def_614 .def_616)))
(let ((.def_619 (or .def_617 .def_618)))
(let ((.def_628 (or .def_619 .def_627)))
(let ((.def_606 (not .def_605)))
(let ((.def_604 (<= 0.0 .def_603)))
(let ((.def_607 (or .def_604 .def_606)))
(let ((.def_629 (and .def_607 .def_628)))
(let ((.def_677 (and .def_629 .def_676)))
(let ((.def_678 (and .def_592 .def_677)))
(let ((.def_679 (not .def_678)))
(let ((.def_683 (or .def_679 .def_682)))
(let ((.def_684 (or .def_593 .def_683)))
(let ((.def_232 (not b.counter.0__AT1)))
(let ((.def_220 (not b.counter.1__AT1)))
(let ((.def_585 (and .def_220 .def_232)))
(let ((.def_588 (or b.counter.3__AT1 .def_585)))
(let ((.def_227 (not b.counter.2__AT1)))
(let ((.def_586 (and .def_227 .def_585)))
(let ((.def_242 (not b.counter.3__AT1)))
(let ((.def_587 (or .def_242 .def_586)))
(let ((.def_589 (and .def_587 .def_588)))
(let ((.def_581 (<= 0.0 b.y__AT2)))
(let ((.def_582 (and .def_67 .def_581)))
(let ((.def_579 (or .def_576 .def_578)))
(let ((.def_569 (or .def_470 .def_482)))
(let ((.def_573 (or b.counter.3__AT2 .def_569)))
(let ((.def_570 (or b.counter.2__AT2 .def_569)))
(let ((.def_568 (or .def_477 .def_482)))
(let ((.def_571 (and .def_568 .def_570)))
(let ((.def_572 (or .def_492 .def_571)))
(let ((.def_574 (and .def_572 .def_573)))
(let ((.def_580 (and .def_574 .def_579)))
(let ((.def_583 (and .def_580 .def_582)))
(let ((.def_353 (<= 0.0 b.delta__AT1)))
(let ((.def_328 (not b.EVENT.0__AT1)))
(let ((.def_326 (not b.EVENT.1__AT1)))
(let ((.def_340 (and .def_326 .def_328)))
(let ((.def_341 (not .def_340)))
(let ((.def_564 (or .def_341 .def_353)))
(let ((.def_565 (or b.EVENT.1__AT1 .def_564)))
(let ((.def_514 (= b.counter.0__AT1 b.counter.0__AT2)))
(let ((.def_512 (= b.counter.1__AT1 b.counter.1__AT2)))
(let ((.def_510 (= b.counter.2__AT1 b.counter.2__AT2)))
(let ((.def_509 (= b.counter.3__AT1 b.counter.3__AT2)))
(let ((.def_511 (and .def_509 .def_510)))
(let ((.def_513 (and .def_511 .def_512)))
(let ((.def_515 (and .def_513 .def_514)))
(let ((.def_561 (or .def_341 .def_515)))
(let ((.def_562 (or b.EVENT.1__AT1 .def_561)))
(let ((.def_521 (= b.x__AT1 b.x__AT2)))
(let ((.def_429 (= b.y__AT1 b.y__AT2)))
(let ((.def_555 (and .def_429 .def_521)))
(let ((.def_441 (= b.speed_x__AT1 b.speed_x__AT2)))
(let ((.def_556 (and .def_441 .def_555)))
(let ((.def_508 (= b.speed_y__AT1 b.speed_y__AT2)))
(let ((.def_557 (and .def_508 .def_556)))
(let ((.def_552 (= b.delta__AT1 0.0 )))
(let ((.def_553 (and .def_340 .def_552)))
(let ((.def_554 (not .def_553)))
(let ((.def_558 (or .def_554 .def_557)))
(let ((.def_559 (or b.EVENT.1__AT1 .def_558)))
(let ((.def_532 (= b.time__AT1 b.time__AT2)))
(let ((.def_544 (and .def_521 .def_532)))
(let ((.def_545 (and .def_429 .def_544)))
(let ((.def_546 (and .def_441 .def_545)))
(let ((.def_547 (and .def_508 .def_546)))
(let ((.def_548 (and .def_515 .def_547)))
(let ((.def_549 (or .def_326 .def_548)))
(let ((.def_535 (* (- 1.0) b.time__AT2)))
(let ((.def_538 (+ b.delta__AT1 .def_535)))
(let ((.def_539 (+ b.time__AT1 .def_538)))
(let ((.def_540 (= .def_539 0.0 )))
(let ((.def_541 (or .def_341 .def_540)))
(let ((.def_542 (or b.EVENT.1__AT1 .def_541)))
(let ((.def_533 (or .def_340 .def_532)))
(let ((.def_534 (or b.EVENT.1__AT1 .def_533)))
(let ((.def_543 (and .def_534 .def_542)))
(let ((.def_550 (and .def_543 .def_549)))
(let ((.def_528 (= .def_341 b.event_is_timed__AT2)))
(let ((.def_526 (= b.event_is_timed__AT1 .def_340)))
(let ((.def_529 (and .def_526 .def_528)))
(let ((.def_516 (and .def_508 .def_515)))
(let ((.def_463 (<= 0.0 b.speed_y__AT1)))
(let ((.def_464 (not .def_463)))
(let ((.def_462 (= b.y__AT1 0.0 )))
(let ((.def_465 (and .def_462 .def_464)))
(let ((.def_517 (or .def_465 .def_516)))
(let ((.def_483 (or b.counter.0__AT1 .def_482)))
(let ((.def_481 (or .def_232 b.counter.0__AT2)))
(let ((.def_484 (and .def_481 .def_483)))
(let ((.def_485 (and .def_470 .def_484)))
(let ((.def_486 (or b.counter.1__AT1 .def_485)))
(let ((.def_480 (or .def_220 b.counter.1__AT2)))
(let ((.def_487 (and .def_480 .def_486)))
(let ((.def_500 (and .def_477 .def_487)))
(let ((.def_501 (or b.counter.2__AT1 .def_500)))
(let ((.def_495 (and .def_232 .def_470)))
(let ((.def_496 (or b.counter.1__AT1 .def_495)))
(let ((.def_497 (and .def_480 .def_496)))
(let ((.def_498 (and b.counter.2__AT2 .def_497)))
(let ((.def_499 (or .def_227 .def_498)))
(let ((.def_502 (and .def_499 .def_501)))
(let ((.def_503 (and b.counter.3__AT2 .def_502)))
(let ((.def_504 (or b.counter.3__AT1 .def_503)))
(let ((.def_488 (and b.counter.2__AT2 .def_487)))
(let ((.def_489 (or b.counter.2__AT1 .def_488)))
(let ((.def_474 (or b.counter.1__AT1 b.counter.1__AT2)))
(let ((.def_472 (and .def_470 b.counter.0__AT2)))
(let ((.def_473 (or .def_220 .def_472)))
(let ((.def_475 (and .def_473 .def_474)))
(let ((.def_478 (and .def_475 .def_477)))
(let ((.def_479 (or .def_227 .def_478)))
(let ((.def_490 (and .def_479 .def_489)))
(let ((.def_493 (and .def_490 .def_492)))
(let ((.def_494 (or .def_242 .def_493)))
(let ((.def_505 (and .def_494 .def_504)))
(let ((.def_191 (* (- 1.0) b.speed_y__AT1)))
(let ((.def_467 (* .def_191 .def_215)))
(let ((.def_468 (= b.speed_y__AT2 .def_467)))
(let ((.def_506 (and .def_468 .def_505)))
(let ((.def_466 (not .def_465)))
(let ((.def_507 (or .def_466 .def_506)))
(let ((.def_518 (and .def_507 .def_517)))
(let ((.def_519 (and .def_429 .def_518)))
(let ((.def_520 (and .def_441 .def_519)))
(let ((.def_522 (and .def_520 .def_521)))
(let ((.def_523 (or .def_340 .def_522)))
(let ((.def_524 (or b.EVENT.1__AT1 .def_523)))
(let ((.def_450 (* b.delta__AT1 b.delta__AT1)))
(let ((.def_451 (* .def_196 .def_450)))
(let ((.def_453 (* (- 1.0) b.y__AT2)))
(let ((.def_456 (+ .def_453 .def_451)))
(let ((.def_371 (* b.speed_y__AT1 b.delta__AT1)))
(let ((.def_457 (+ .def_371 .def_456)))
(let ((.def_458 (+ b.y__AT1 .def_457)))
(let ((.def_459 (= .def_458 0.0 )))
(let ((.def_443 (* .def_188 b.delta__AT1)))
(let ((.def_446 (+ .def_443 .def_445)))
(let ((.def_447 (+ b.speed_y__AT1 .def_446)))
(let ((.def_448 (= .def_447 0.0 )))
(let ((.def_436 (* (- 1.0) b.x__AT2)))
(let ((.def_434 (* b.speed_x__AT1 b.delta__AT1)))
(let ((.def_437 (+ .def_434 .def_436)))
(let ((.def_438 (+ b.x__AT1 .def_437)))
(let ((.def_439 (= .def_438 0.0 )))
(let ((.def_442 (and .def_439 .def_441)))
(let ((.def_449 (and .def_442 .def_448)))
(let ((.def_460 (and .def_449 .def_459)))
(let ((.def_461 (or .def_341 .def_460)))
(let ((.def_525 (and .def_461 .def_524)))
(let ((.def_530 (and .def_525 .def_529)))
(let ((.def_551 (and .def_530 .def_550)))
(let ((.def_560 (and .def_551 .def_559)))
(let ((.def_563 (and .def_560 .def_562)))
(let ((.def_566 (and .def_563 .def_565)))
(let ((.def_567 (and .def_326 .def_566)))
(let ((.def_584 (and .def_567 .def_583)))
(let ((.def_590 (and .def_584 .def_589)))
(let ((.def_430 (not .def_429)))
(let ((.def_343 (* g__AT0 b.delta__AT1)))
(let ((.def_417 (<= b.speed_y__AT1 .def_343)))
(let ((.def_418 (not .def_417)))
(let ((.def_346 (* 2.0 b.speed_y__AT1)))
(let ((.def_347 (* b.delta__AT1 .def_346)))
(let ((.def_344 (* b.delta__AT1 .def_343)))
(let ((.def_345 (* (- 1.0) .def_344)))
(let ((.def_348 (+ .def_345 .def_347)))
(let ((.def_349 (* 2.0 b.y__AT1)))
(let ((.def_351 (+ .def_349 .def_348)))
(let ((.def_409 (= .def_351 0.0 )))
(let ((.def_410 (not .def_409)))
(let ((.def_419 (or .def_410 .def_418)))
(let ((.def_396 (* .def_113 b.speed_y__AT1)))
(let ((.def_397 (* b.delta__AT1 .def_396)))
(let ((.def_393 (* .def_133 b.delta__AT1)))
(let ((.def_394 (* b.delta__AT1 .def_393)))
(let ((.def_395 (* (- 1.0) .def_394)))
(let ((.def_398 (+ .def_395 .def_397)))
(let ((.def_378 (* .def_113 b.y__AT1)))
(let ((.def_399 (+ .def_378 .def_398)))
(let ((.def_404 (<= 0.0 .def_399)))
(let ((.def_356 (* g__AT0 b.speed_y__AT1)))
(let ((.def_401 (<= .def_393 .def_356)))
(let ((.def_405 (or .def_401 .def_404)))
(let ((.def_420 (and .def_405 .def_419)))
(let ((.def_358 (* b.speed_y__AT1 b.speed_y__AT1)))
(let ((.def_379 (+ .def_358 .def_378)))
(let ((.def_414 (<= .def_379 0.0 )))
(let ((.def_415 (not .def_414)))
(let ((.def_416 (or .def_130 .def_415)))
(let ((.def_421 (or .def_416 .def_420)))
(let ((.def_383 (* g__AT0 b.y__AT1)))
(let ((.def_387 (<= .def_383 0.0 )))
(let ((.def_386 (<= .def_356 0.0 )))
(let ((.def_388 (and .def_386 .def_387)))
(let ((.def_422 (or .def_388 .def_421)))
(let ((.def_407 (<= .def_343 b.speed_y__AT1)))
(let ((.def_408 (not .def_407)))
(let ((.def_411 (or .def_408 .def_410)))
(let ((.def_400 (<= .def_399 0.0 )))
(let ((.def_402 (and .def_400 .def_401)))
(let ((.def_403 (or .def_130 .def_402)))
(let ((.def_406 (and .def_403 .def_405)))
(let ((.def_412 (and .def_406 .def_411)))
(let ((.def_390 (= .def_379 0.0 )))
(let ((.def_391 (and .def_130 .def_390)))
(let ((.def_384 (<= 0.0 .def_383)))
(let ((.def_385 (and .def_122 .def_384)))
(let ((.def_389 (or .def_385 .def_388)))
(let ((.def_392 (or .def_389 .def_391)))
(let ((.def_413 (or .def_392 .def_412)))
(let ((.def_423 (and .def_413 .def_422)))
(let ((.def_380 (<= 0.0 .def_379)))
(let ((.def_381 (not .def_380)))
(let ((.def_382 (or .def_96 .def_381)))
(let ((.def_424 (or .def_382 .def_423)))
(let ((.def_372 (+ b.y__AT1 .def_371)))
(let ((.def_373 (= .def_372 0.0 )))
(let ((.def_374 (not .def_373)))
(let ((.def_368 (* b.delta__AT1 .def_358)))
(let ((.def_363 (* b.y__AT1 b.speed_y__AT1)))
(let ((.def_369 (+ .def_363 .def_368)))
(let ((.def_370 (<= .def_369 0.0 )))
(let ((.def_375 (and .def_370 .def_374)))
(let ((.def_366 (= b.speed_y__AT1 0.0 )))
(let ((.def_364 (<= 0.0 .def_363)))
(let ((.def_359 (* b.speed_y__AT1 .def_358)))
(let ((.def_357 (* b.y__AT1 .def_356)))
(let ((.def_360 (+ .def_357 .def_359)))
(let ((.def_361 (<= .def_360 0.0 )))
(let ((.def_362 (or .def_97 .def_361)))
(let ((.def_365 (or .def_362 .def_364)))
(let ((.def_367 (or .def_365 .def_366)))
(let ((.def_376 (or .def_367 .def_375)))
(let ((.def_354 (not .def_353)))
(let ((.def_352 (<= 0.0 .def_351)))
(let ((.def_355 (or .def_352 .def_354)))
(let ((.def_377 (and .def_355 .def_376)))
(let ((.def_425 (and .def_377 .def_424)))
(let ((.def_426 (and .def_340 .def_425)))
(let ((.def_427 (not .def_426)))
(let ((.def_431 (or .def_427 .def_430)))
(let ((.def_432 (or .def_341 .def_431)))
(let ((.def_32 (not b.counter.0__AT0)))
(let ((.def_30 (not b.counter.1__AT0)))
(let ((.def_33 (and .def_30 .def_32)))
(let ((.def_336 (or .def_33 b.counter.3__AT0)))
(let ((.def_38 (not b.counter.3__AT0)))
(let ((.def_35 (not b.counter.2__AT0)))
(let ((.def_36 (and .def_33 .def_35)))
(let ((.def_335 (or .def_36 .def_38)))
(let ((.def_337 (and .def_335 .def_336)))
(let ((.def_331 (<= 0.0 b.y__AT1)))
(let ((.def_332 (and .def_67 .def_331)))
(let ((.def_329 (or .def_326 .def_328)))
(let ((.def_319 (or .def_220 .def_232)))
(let ((.def_323 (or b.counter.3__AT1 .def_319)))
(let ((.def_320 (or b.counter.2__AT1 .def_319)))
(let ((.def_318 (or .def_227 .def_232)))
(let ((.def_321 (and .def_318 .def_320)))
(let ((.def_322 (or .def_242 .def_321)))
(let ((.def_324 (and .def_322 .def_323)))
(let ((.def_330 (and .def_324 .def_329)))
(let ((.def_333 (and .def_330 .def_332)))
(let ((.def_87 (<= 0.0 b.delta__AT0)))
(let ((.def_51 (not b.EVENT.0__AT0)))
(let ((.def_49 (not b.EVENT.1__AT0)))
(let ((.def_73 (and .def_49 .def_51)))
(let ((.def_74 (not .def_73)))
(let ((.def_314 (or .def_74 .def_87)))
(let ((.def_315 (or b.EVENT.1__AT0 .def_314)))
(let ((.def_264 (= b.counter.0__AT0 b.counter.0__AT1)))
(let ((.def_262 (= b.counter.1__AT0 b.counter.1__AT1)))
(let ((.def_260 (= b.counter.2__AT0 b.counter.2__AT1)))
(let ((.def_259 (= b.counter.3__AT0 b.counter.3__AT1)))
(let ((.def_261 (and .def_259 .def_260)))
(let ((.def_263 (and .def_261 .def_262)))
(let ((.def_265 (and .def_263 .def_264)))
(let ((.def_311 (or .def_74 .def_265)))
(let ((.def_312 (or b.EVENT.1__AT0 .def_311)))
(let ((.def_271 (= b.x__AT1 b.x__AT0)))
(let ((.def_170 (= b.y__AT0 b.y__AT1)))
(let ((.def_305 (and .def_170 .def_271)))
(let ((.def_186 (= b.speed_x__AT0 b.speed_x__AT1)))
(let ((.def_306 (and .def_186 .def_305)))
(let ((.def_258 (= b.speed_y__AT0 b.speed_y__AT1)))
(let ((.def_307 (and .def_258 .def_306)))
(let ((.def_302 (= b.delta__AT0 0.0 )))
(let ((.def_303 (and .def_73 .def_302)))
(let ((.def_304 (not .def_303)))
(let ((.def_308 (or .def_304 .def_307)))
(let ((.def_309 (or b.EVENT.1__AT0 .def_308)))
(let ((.def_282 (= b.time__AT0 b.time__AT1)))
(let ((.def_294 (and .def_271 .def_282)))
(let ((.def_295 (and .def_170 .def_294)))
(let ((.def_296 (and .def_186 .def_295)))
(let ((.def_297 (and .def_258 .def_296)))
(let ((.def_298 (and .def_265 .def_297)))
(let ((.def_299 (or .def_49 .def_298)))
(let ((.def_285 (* (- 1.0) b.time__AT1)))
(let ((.def_288 (+ b.delta__AT0 .def_285)))
(let ((.def_289 (+ b.time__AT0 .def_288)))
(let ((.def_290 (= .def_289 0.0 )))
(let ((.def_291 (or .def_74 .def_290)))
(let ((.def_292 (or b.EVENT.1__AT0 .def_291)))
(let ((.def_283 (or .def_73 .def_282)))
(let ((.def_284 (or b.EVENT.1__AT0 .def_283)))
(let ((.def_293 (and .def_284 .def_292)))
(let ((.def_300 (and .def_293 .def_299)))
(let ((.def_278 (= .def_74 b.event_is_timed__AT1)))
(let ((.def_276 (= b.event_is_timed__AT0 .def_73)))
(let ((.def_279 (and .def_276 .def_278)))
(let ((.def_266 (and .def_258 .def_265)))
(let ((.def_210 (<= 0.0 b.speed_y__AT0)))
(let ((.def_211 (not .def_210)))
(let ((.def_209 (= b.y__AT0 0.0 )))
(let ((.def_212 (and .def_209 .def_211)))
(let ((.def_267 (or .def_212 .def_266)))
(let ((.def_233 (or b.counter.0__AT0 .def_232)))
(let ((.def_231 (or .def_32 b.counter.0__AT1)))
(let ((.def_234 (and .def_231 .def_233)))
(let ((.def_235 (and .def_220 .def_234)))
(let ((.def_236 (or b.counter.1__AT0 .def_235)))
(let ((.def_230 (or .def_30 b.counter.1__AT1)))
(let ((.def_237 (and .def_230 .def_236)))
(let ((.def_250 (and .def_227 .def_237)))
(let ((.def_251 (or b.counter.2__AT0 .def_250)))
(let ((.def_245 (and .def_32 .def_220)))
(let ((.def_246 (or b.counter.1__AT0 .def_245)))
(let ((.def_247 (and .def_230 .def_246)))
(let ((.def_248 (and b.counter.2__AT1 .def_247)))
(let ((.def_249 (or .def_35 .def_248)))
(let ((.def_252 (and .def_249 .def_251)))
(let ((.def_253 (and b.counter.3__AT1 .def_252)))
(let ((.def_254 (or b.counter.3__AT0 .def_253)))
(let ((.def_238 (and b.counter.2__AT1 .def_237)))
(let ((.def_239 (or b.counter.2__AT0 .def_238)))
(let ((.def_224 (or b.counter.1__AT0 b.counter.1__AT1)))
(let ((.def_222 (and .def_220 b.counter.0__AT1)))
(let ((.def_223 (or .def_30 .def_222)))
(let ((.def_225 (and .def_223 .def_224)))
(let ((.def_228 (and .def_225 .def_227)))
(let ((.def_229 (or .def_35 .def_228)))
(let ((.def_240 (and .def_229 .def_239)))
(let ((.def_243 (and .def_240 .def_242)))
(let ((.def_244 (or .def_38 .def_243)))
(let ((.def_255 (and .def_244 .def_254)))
(let ((.def_216 (* (- 1.0) b.speed_y__AT0)))
(let ((.def_217 (* .def_215 .def_216)))
(let ((.def_218 (= b.speed_y__AT1 .def_217)))
(let ((.def_256 (and .def_218 .def_255)))
(let ((.def_213 (not .def_212)))
(let ((.def_257 (or .def_213 .def_256)))
(let ((.def_268 (and .def_257 .def_267)))
(let ((.def_269 (and .def_170 .def_268)))
(let ((.def_270 (and .def_186 .def_269)))
(let ((.def_272 (and .def_270 .def_271)))
(let ((.def_273 (or .def_73 .def_272)))
(let ((.def_274 (or b.EVENT.1__AT0 .def_273)))
(let ((.def_197 (* b.delta__AT0 b.delta__AT0)))
(let ((.def_198 (* .def_196 .def_197)))
(let ((.def_200 (* (- 1.0) b.y__AT1)))
(let ((.def_203 (+ .def_200 .def_198)))
(let ((.def_106 (* b.speed_y__AT0 b.delta__AT0)))
(let ((.def_204 (+ .def_106 .def_203)))
(let ((.def_205 (+ b.y__AT0 .def_204)))
(let ((.def_206 (= .def_205 0.0 )))
(let ((.def_189 (* b.delta__AT0 .def_188)))
(let ((.def_192 (+ .def_189 .def_191)))
(let ((.def_193 (+ b.speed_y__AT0 .def_192)))
(let ((.def_194 (= .def_193 0.0 )))
(let ((.def_178 (* (- 1.0) b.x__AT1)))
(let ((.def_182 (+ .def_178 b.x__AT0)))
(let ((.def_176 (* b.delta__AT0 b.speed_x__AT0)))
(let ((.def_183 (+ .def_176 .def_182)))
(let ((.def_184 (= .def_183 0.0 )))
(let ((.def_187 (and .def_184 .def_186)))
(let ((.def_195 (and .def_187 .def_194)))
(let ((.def_207 (and .def_195 .def_206)))
(let ((.def_208 (or .def_74 .def_207)))
(let ((.def_275 (and .def_208 .def_274)))
(let ((.def_280 (and .def_275 .def_279)))
(let ((.def_301 (and .def_280 .def_300)))
(let ((.def_310 (and .def_301 .def_309)))
(let ((.def_313 (and .def_310 .def_312)))
(let ((.def_316 (and .def_313 .def_315)))
(let ((.def_317 (and .def_49 .def_316)))
(let ((.def_334 (and .def_317 .def_333)))
(let ((.def_338 (and .def_334 .def_337)))
(let ((.def_171 (not .def_170)))
(let ((.def_76 (* g__AT0 b.delta__AT0)))
(let ((.def_158 (<= b.speed_y__AT0 .def_76)))
(let ((.def_159 (not .def_158)))
(let ((.def_80 (* 2.0 b.speed_y__AT0)))
(let ((.def_81 (* b.delta__AT0 .def_80)))
(let ((.def_77 (* b.delta__AT0 .def_76)))
(let ((.def_79 (* (- 1.0) .def_77)))
(let ((.def_82 (+ .def_79 .def_81)))
(let ((.def_83 (* 2.0 b.y__AT0)))
(let ((.def_85 (+ .def_83 .def_82)))
(let ((.def_150 (= .def_85 0.0 )))
(let ((.def_151 (not .def_150)))
(let ((.def_160 (or .def_151 .def_159)))
(let ((.def_137 (* b.speed_y__AT0 .def_113)))
(let ((.def_138 (* b.delta__AT0 .def_137)))
(let ((.def_134 (* b.delta__AT0 .def_133)))
(let ((.def_135 (* b.delta__AT0 .def_134)))
(let ((.def_136 (* (- 1.0) .def_135)))
(let ((.def_139 (+ .def_136 .def_138)))
(let ((.def_114 (* b.y__AT0 .def_113)))
(let ((.def_140 (+ .def_114 .def_139)))
(let ((.def_145 (<= 0.0 .def_140)))
(let ((.def_90 (* b.speed_y__AT0 g__AT0)))
(let ((.def_142 (<= .def_134 .def_90)))
(let ((.def_146 (or .def_142 .def_145)))
(let ((.def_161 (and .def_146 .def_160)))
(let ((.def_92 (* b.speed_y__AT0 b.speed_y__AT0)))
(let ((.def_115 (+ .def_92 .def_114)))
(let ((.def_155 (<= .def_115 0.0 )))
(let ((.def_156 (not .def_155)))
(let ((.def_157 (or .def_130 .def_156)))
(let ((.def_162 (or .def_157 .def_161)))
(let ((.def_119 (* b.y__AT0 g__AT0)))
(let ((.def_125 (<= .def_119 0.0 )))
(let ((.def_124 (<= .def_90 0.0 )))
(let ((.def_126 (and .def_124 .def_125)))
(let ((.def_163 (or .def_126 .def_162)))
(let ((.def_148 (<= .def_76 b.speed_y__AT0)))
(let ((.def_149 (not .def_148)))
(let ((.def_152 (or .def_149 .def_151)))
(let ((.def_141 (<= .def_140 0.0 )))
(let ((.def_143 (and .def_141 .def_142)))
(let ((.def_144 (or .def_130 .def_143)))
(let ((.def_147 (and .def_144 .def_146)))
(let ((.def_153 (and .def_147 .def_152)))
(let ((.def_128 (= .def_115 0.0 )))
(let ((.def_131 (and .def_128 .def_130)))
(let ((.def_120 (<= 0.0 .def_119)))
(let ((.def_123 (and .def_120 .def_122)))
(let ((.def_127 (or .def_123 .def_126)))
(let ((.def_132 (or .def_127 .def_131)))
(let ((.def_154 (or .def_132 .def_153)))
(let ((.def_164 (and .def_154 .def_163)))
(let ((.def_116 (<= 0.0 .def_115)))
(let ((.def_117 (not .def_116)))
(let ((.def_118 (or .def_96 .def_117)))
(let ((.def_165 (or .def_118 .def_164)))
(let ((.def_107 (+ b.y__AT0 .def_106)))
(let ((.def_108 (= .def_107 0.0 )))
(let ((.def_109 (not .def_108)))
(let ((.def_103 (* b.delta__AT0 .def_92)))
(let ((.def_99 (* b.y__AT0 b.speed_y__AT0)))
(let ((.def_104 (+ .def_99 .def_103)))
(let ((.def_105 (<= .def_104 0.0 )))
(let ((.def_110 (and .def_105 .def_109)))
(let ((.def_100 (<= 0.0 .def_99)))
(let ((.def_93 (* b.speed_y__AT0 .def_92)))
(let ((.def_91 (* b.y__AT0 .def_90)))
(let ((.def_94 (+ .def_91 .def_93)))
(let ((.def_95 (<= .def_94 0.0 )))
(let ((.def_98 (or .def_95 .def_97)))
(let ((.def_101 (or .def_98 .def_100)))
(let ((.def_27 (= b.speed_y__AT0 0.0 )))
(let ((.def_102 (or .def_27 .def_101)))
(let ((.def_111 (or .def_102 .def_110)))
(let ((.def_88 (not .def_87)))
(let ((.def_86 (<= 0.0 .def_85)))
(let ((.def_89 (or .def_86 .def_88)))
(let ((.def_112 (and .def_89 .def_111)))
(let ((.def_166 (and .def_112 .def_165)))
(let ((.def_167 (and .def_73 .def_166)))
(let ((.def_168 (not .def_167)))
(let ((.def_172 (or .def_168 .def_171)))
(let ((.def_173 (or .def_74 .def_172)))
(let ((.def_68 (<= 0.0 b.y__AT0)))
(let ((.def_69 (and .def_67 .def_68)))
(let ((.def_52 (or .def_49 .def_51)))
(let ((.def_42 (or .def_30 .def_32)))
(let ((.def_46 (or b.counter.3__AT0 .def_42)))
(let ((.def_43 (or b.counter.2__AT0 .def_42)))
(let ((.def_41 (or .def_32 .def_35)))
(let ((.def_44 (and .def_41 .def_43)))
(let ((.def_45 (or .def_38 .def_44)))
(let ((.def_47 (and .def_45 .def_46)))
(let ((.def_53 (and .def_47 .def_52)))
(let ((.def_70 (and .def_53 .def_69)))
(let ((.def_39 (and .def_36 .def_38)))
(let ((.def_24 (= b.y__AT0 10.0 )))
(let ((.def_19 (= b.time__AT0 0.0 )))
(let ((.def_21 (and .def_19 b.event_is_timed__AT0)))
(let ((.def_25 (and .def_21 .def_24)))
(let ((.def_28 (and .def_25 .def_27)))
(let ((.def_40 (and .def_28 .def_39)))
(let ((.def_71 (and .def_40 .def_70)))
(let ((.def_7 (and .def_4 .def_6)))
(let ((.def_14 (or .def_7 b.counter.3__AT3)))
(let ((.def_10 (and .def_7 .def_9)))
(let ((.def_13 (or .def_10 .def_12)))
(let ((.def_15 (and .def_13 .def_14)))
(let ((.def_16 (not .def_15)))
(let ((.def_72 (and .def_16 .def_71)))
(let ((.def_174 (and .def_72 .def_173)))
(let ((.def_339 (and .def_174 .def_338)))
(let ((.def_433 (and .def_339 .def_432)))
(let ((.def_591 (and .def_433 .def_590)))
(let ((.def_685 (and .def_591 .def_684)))
(let ((.def_835 (and .def_685 .def_834)))
(let ((.def_929 (and .def_835 .def_928)))
.def_929))))))))))))))))))))))))))))))))))))))))))))))))))))))))))))))))))))))))))))))))))))))))))))))))))))))))))))))))))))))))))))))))))))))))))))))))))))))))))))))))))))))))))))))))))))))))))))))))))))))))))))))))))))))))))))))))))))))))))))))))))))))))))))))))))))))))))))))))))))))))))))))))))))))))))))))))))))))))))))))))))))))))))))))))))))))))))))))))))))))))))))))))))))))))))))))))))))))))))))))))))))))))))))))))))))))))))))))))))))))))))))))))))))))))))))))))))))))))))))))))))))))))))))))))))))))))))))))))))))))))))))))))))))))))))))))))))))))))))))))))))))))))))))))))))))))))))))))))))))))))))))))))))))))))))))))))))))))))))))))))))))))))))))))))))))))))))))))))))))))))))))))))))))))))))))))))))))))))))))))))))))))))))))))))))))))))))))))))))))))))))))))))))))))))))))))))))))))))))))))))))))))))))))))))))))))))))))))))))))))))))))
(check-sat)
(exit)
